computational_data/lp/ER_n40_p020_s2.lp
Minimize
 obj: r_0 + r_1 + r_2 + r_3 + r_4 + r_5 + r_6 + r_7 + r_8 + r_9 + r_10 + r_11 + r_12 + r_13 + r_14 + r_15 + r_16 + r_17 + r_18 + r_19 + r_20 + r_21 + r_22 + r_23 + r_24 + r_25 + r_26 + r_27 + r_28 + r_29 + r_30 + r_31 + r_32 + r_33 + r_34 + r_35 + r_36 + r_37 + r_38 + r_39 + b_0 + b_1 + b_2 + b_3 + b_4 + b_5 + b_6 + b_7 + b_8 + b_9 + b_10 + b_11 + b_12 + b_13 + b_14 + b_15 + b_16 + b_17 + b_18 + b_19 + b_20 + b_21 + b_22 + b_23 + b_24 + b_25 + b_26 + b_27 + b_28 + b_29 + b_30 + b_31 + b_32 + b_33 + b_34 + b_35 + b_36 + b_37 + b_38 + b_39
Subject To
 red_nonempty: r_0 + r_1 + r_2 + r_3 + r_4 + r_5 + r_6 + r_7 + r_8 + r_9 + r_10 + r_11 + r_12 + r_13 + r_14 + r_15 + r_16 + r_17 + r_18 + r_19 + r_20 + r_21 + r_22 + r_23 + r_24 + r_25 + r_26 + r_27 + r_28 + r_29 + r_30 + r_31 + r_32 + r_33 + r_34 + r_35 + r_36 + r_37 + r_38 + r_39 >= 1
 blue_nonempty: b_0 + b_1 + b_2 + b_3 + b_4 + b_5 + b_6 + b_7 + b_8 + b_9 + b_10 + b_11 + b_12 + b_13 + b_14 + b_15 + b_16 + b_17 + b_18 + b_19 + b_20 + b_21 + b_22 + b_23 + b_24 + b_25 + b_26 + b_27 + b_28 + b_29 + b_30 + b_31 + b_32 + b_33 + b_34 + b_35 + b_36 + b_37 + b_38 + b_39 >= 1
 disjoint_0: r_0 + b_0 <= 1
 disjoint_1: r_1 + b_1 <= 1
 disjoint_2: r_2 + b_2 <= 1
 disjoint_3: r_3 + b_3 <= 1
 disjoint_4: r_4 + b_4 <= 1
 disjoint_5: r_5 + b_5 <= 1
 disjoint_6: r_6 + b_6 <= 1
 disjoint_7: r_7 + b_7 <= 1
 disjoint_8: r_8 + b_8 <= 1
 disjoint_9: r_9 + b_9 <= 1
 disjoint_10: r_10 + b_10 <= 1
 disjoint_11: r_11 + b_11 <= 1
 disjoint_12: r_12 + b_12 <= 1
 disjoint_13: r_13 + b_13 <= 1
 disjoint_14: r_14 + b_14 <= 1
 disjoint_15: r_15 + b_15 <= 1
 disjoint_16: r_16 + b_16 <= 1
 disjoint_17: r_17 + b_17 <= 1
 disjoint_18: r_18 + b_18 <= 1
 disjoint_19: r_19 + b_19 <= 1
 disjoint_20: r_20 + b_20 <= 1
 disjoint_21: r_21 + b_21 <= 1
 disjoint_22: r_22 + b_22 <= 1
 disjoint_23: r_23 + b_23 <= 1
 disjoint_24: r_24 + b_24 <= 1
 disjoint_25: r_25 + b_25 <= 1
 disjoint_26: r_26 + b_26 <= 1
 disjoint_27: r_27 + b_27 <= 1
 disjoint_28: r_28 + b_28 <= 1
 disjoint_29: r_29 + b_29 <= 1
 disjoint_30: r_30 + b_30 <= 1
 disjoint_31: r_31 + b_31 <= 1
 disjoint_32: r_32 + b_32 <= 1
 disjoint_33: r_33 + b_33 <= 1
 disjoint_34: r_34 + b_34 <= 1
 disjoint_35: r_35 + b_35 <= 1
 disjoint_36: r_36 + b_36 <= 1
 disjoint_37: r_37 + b_37 <= 1
 disjoint_38: r_38 + b_38 <= 1
 disjoint_39: r_39 + b_39 <= 1
 red_ind_0: r_0 + r_32 <= 1
 blue_ind_0: b_0 + b_32 <= 1
 red_ind_1: r_0 + r_3 <= 1
 blue_ind_1: b_0 + b_3 <= 1
 red_ind_2: r_0 + r_4 <= 1
 blue_ind_2: b_0 + b_4 <= 1
 red_ind_3: r_0 + r_36 <= 1
 blue_ind_3: b_0 + b_36 <= 1
 red_ind_4: r_0 + r_12 <= 1
 blue_ind_4: b_0 + b_12 <= 1
 red_ind_5: r_0 + r_21 <= 1
 blue_ind_5: b_0 + b_21 <= 1
 red_ind_6: r_0 + r_22 <= 1
 blue_ind_6: b_0 + b_22 <= 1
 red_ind_7: r_0 + r_30 <= 1
 blue_ind_7: b_0 + b_30 <= 1
 red_ind_8: r_1 + r_8 <= 1
 blue_ind_8: b_1 + b_8 <= 1
 red_ind_9: r_1 + r_28 <= 1
 blue_ind_9: b_1 + b_28 <= 1
 red_ind_10: r_2 + r_32 <= 1
 blue_ind_10: b_2 + b_32 <= 1
 red_ind_11: r_2 + r_34 <= 1
 blue_ind_11: b_2 + b_34 <= 1
 red_ind_12: r_2 + r_37 <= 1
 blue_ind_12: b_2 + b_37 <= 1
 red_ind_13: r_2 + r_38 <= 1
 blue_ind_13: b_2 + b_38 <= 1
 red_ind_14: r_2 + r_7 <= 1
 blue_ind_14: b_2 + b_7 <= 1
 red_ind_15: r_2 + r_11 <= 1
 blue_ind_15: b_2 + b_11 <= 1
 red_ind_16: r_2 + r_13 <= 1
 blue_ind_16: b_2 + b_13 <= 1
 red_ind_17: r_2 + r_18 <= 1
 blue_ind_17: b_2 + b_18 <= 1
 red_ind_18: r_2 + r_26 <= 1
 blue_ind_18: b_2 + b_26 <= 1
 red_ind_19: r_2 + r_28 <= 1
 blue_ind_19: b_2 + b_28 <= 1
 red_ind_20: r_2 + r_30 <= 1
 blue_ind_20: b_2 + b_30 <= 1
 red_ind_21: r_3 + r_33 <= 1
 blue_ind_21: b_3 + b_33 <= 1
 red_ind_22: r_3 + r_5 <= 1
 blue_ind_22: b_3 + b_5 <= 1
 red_ind_23: r_3 + r_38 <= 1
 blue_ind_23: b_3 + b_38 <= 1
 red_ind_24: r_3 + r_7 <= 1
 blue_ind_24: b_3 + b_7 <= 1
 red_ind_25: r_3 + r_8 <= 1
 blue_ind_25: b_3 + b_8 <= 1
 red_ind_26: r_3 + r_12 <= 1
 blue_ind_26: b_3 + b_12 <= 1
 red_ind_27: r_3 + r_14 <= 1
 blue_ind_27: b_3 + b_14 <= 1
 red_ind_28: r_3 + r_26 <= 1
 blue_ind_28: b_3 + b_26 <= 1
 red_ind_29: r_3 + r_29 <= 1
 blue_ind_29: b_3 + b_29 <= 1
 red_ind_30: r_4 + r_32 <= 1
 blue_ind_30: b_4 + b_32 <= 1
 red_ind_31: r_4 + r_5 <= 1
 blue_ind_31: b_4 + b_5 <= 1
 red_ind_32: r_4 + r_6 <= 1
 blue_ind_32: b_4 + b_6 <= 1
 red_ind_33: r_4 + r_7 <= 1
 blue_ind_33: b_4 + b_7 <= 1
 red_ind_34: r_4 + r_8 <= 1
 blue_ind_34: b_4 + b_8 <= 1
 red_ind_35: r_4 + r_9 <= 1
 blue_ind_35: b_4 + b_9 <= 1
 red_ind_36: r_4 + r_25 <= 1
 blue_ind_36: b_4 + b_25 <= 1
 red_ind_37: r_4 + r_26 <= 1
 blue_ind_37: b_4 + b_26 <= 1
 red_ind_38: r_4 + r_28 <= 1
 blue_ind_38: b_4 + b_28 <= 1
 red_ind_39: r_4 + r_31 <= 1
 blue_ind_39: b_4 + b_31 <= 1
 red_ind_40: r_5 + r_37 <= 1
 blue_ind_40: b_5 + b_37 <= 1
 red_ind_41: r_5 + r_12 <= 1
 blue_ind_41: b_5 + b_12 <= 1
 red_ind_42: r_5 + r_15 <= 1
 blue_ind_42: b_5 + b_15 <= 1
 red_ind_43: r_5 + r_16 <= 1
 blue_ind_43: b_5 + b_16 <= 1
 red_ind_44: r_5 + r_25 <= 1
 blue_ind_44: b_5 + b_25 <= 1
 red_ind_45: r_5 + r_27 <= 1
 blue_ind_45: b_5 + b_27 <= 1
 red_ind_46: r_5 + r_31 <= 1
 blue_ind_46: b_5 + b_31 <= 1
 red_ind_47: r_6 + r_16 <= 1
 blue_ind_47: b_6 + b_16 <= 1
 red_ind_48: r_6 + r_17 <= 1
 blue_ind_48: b_6 + b_17 <= 1
 red_ind_49: r_6 + r_18 <= 1
 blue_ind_49: b_6 + b_18 <= 1
 red_ind_50: r_6 + r_23 <= 1
 blue_ind_50: b_6 + b_23 <= 1
 red_ind_51: r_6 + r_8 <= 1
 blue_ind_51: b_6 + b_8 <= 1
 red_ind_52: r_6 + r_10 <= 1
 blue_ind_52: b_6 + b_10 <= 1
 red_ind_53: r_7 + r_32 <= 1
 blue_ind_53: b_7 + b_32 <= 1
 red_ind_54: r_7 + r_36 <= 1
 blue_ind_54: b_7 + b_36 <= 1
 red_ind_55: r_7 + r_15 <= 1
 blue_ind_55: b_7 + b_15 <= 1
 red_ind_56: r_7 + r_18 <= 1
 blue_ind_56: b_7 + b_18 <= 1
 red_ind_57: r_7 + r_20 <= 1
 blue_ind_57: b_7 + b_20 <= 1
 red_ind_58: r_7 + r_21 <= 1
 blue_ind_58: b_7 + b_21 <= 1
 red_ind_59: r_7 + r_25 <= 1
 blue_ind_59: b_7 + b_25 <= 1
 red_ind_60: r_8 + r_16 <= 1
 blue_ind_60: b_8 + b_16 <= 1
 red_ind_61: r_8 + r_18 <= 1
 blue_ind_61: b_8 + b_18 <= 1
 red_ind_62: r_8 + r_21 <= 1
 blue_ind_62: b_8 + b_21 <= 1
 red_ind_63: r_9 + r_39 <= 1
 blue_ind_63: b_9 + b_39 <= 1
 red_ind_64: r_9 + r_11 <= 1
 blue_ind_64: b_9 + b_11 <= 1
 red_ind_65: r_9 + r_17 <= 1
 blue_ind_65: b_9 + b_17 <= 1
 red_ind_66: r_9 + r_23 <= 1
 blue_ind_66: b_9 + b_23 <= 1
 red_ind_67: r_9 + r_26 <= 1
 blue_ind_67: b_9 + b_26 <= 1
 red_ind_68: r_9 + r_29 <= 1
 blue_ind_68: b_9 + b_29 <= 1
 red_ind_69: r_9 + r_31 <= 1
 blue_ind_69: b_9 + b_31 <= 1
 red_ind_70: r_10 + r_32 <= 1
 blue_ind_70: b_10 + b_32 <= 1
 red_ind_71: r_10 + r_36 <= 1
 blue_ind_71: b_10 + b_36 <= 1
 red_ind_72: r_10 + r_11 <= 1
 blue_ind_72: b_10 + b_11 <= 1
 red_ind_73: r_10 + r_21 <= 1
 blue_ind_73: b_10 + b_21 <= 1
 red_ind_74: r_10 + r_22 <= 1
 blue_ind_74: b_10 + b_22 <= 1
 red_ind_75: r_10 + r_24 <= 1
 blue_ind_75: b_10 + b_24 <= 1
 red_ind_76: r_10 + r_31 <= 1
 blue_ind_76: b_10 + b_31 <= 1
 red_ind_77: r_11 + r_21 <= 1
 blue_ind_77: b_11 + b_21 <= 1
 red_ind_78: r_11 + r_29 <= 1
 blue_ind_78: b_11 + b_29 <= 1
 red_ind_79: r_12 + r_33 <= 1
 blue_ind_79: b_12 + b_33 <= 1
 red_ind_80: r_12 + r_15 <= 1
 blue_ind_80: b_12 + b_15 <= 1
 red_ind_81: r_12 + r_20 <= 1
 blue_ind_81: b_12 + b_20 <= 1
 red_ind_82: r_12 + r_22 <= 1
 blue_ind_82: b_12 + b_22 <= 1
 red_ind_83: r_12 + r_31 <= 1
 blue_ind_83: b_12 + b_31 <= 1
 red_ind_84: r_13 + r_34 <= 1
 blue_ind_84: b_13 + b_34 <= 1
 red_ind_85: r_13 + r_39 <= 1
 blue_ind_85: b_13 + b_39 <= 1
 red_ind_86: r_14 + r_16 <= 1
 blue_ind_86: b_14 + b_16 <= 1
 red_ind_87: r_14 + r_33 <= 1
 blue_ind_87: b_14 + b_33 <= 1
 red_ind_88: r_14 + r_34 <= 1
 blue_ind_88: b_14 + b_34 <= 1
 red_ind_89: r_14 + r_17 <= 1
 blue_ind_89: b_14 + b_17 <= 1
 red_ind_90: r_14 + r_30 <= 1
 blue_ind_90: b_14 + b_30 <= 1
 red_ind_91: r_15 + r_23 <= 1
 blue_ind_91: b_15 + b_23 <= 1
 red_ind_92: r_15 + r_22 <= 1
 blue_ind_92: b_15 + b_22 <= 1
 red_ind_93: r_15 + r_27 <= 1
 blue_ind_93: b_15 + b_27 <= 1
 red_ind_94: r_16 + r_33 <= 1
 blue_ind_94: b_16 + b_33 <= 1
 red_ind_95: r_16 + r_36 <= 1
 blue_ind_95: b_16 + b_36 <= 1
 red_ind_96: r_16 + r_37 <= 1
 blue_ind_96: b_16 + b_37 <= 1
 red_ind_97: r_16 + r_39 <= 1
 blue_ind_97: b_16 + b_39 <= 1
 red_ind_98: r_16 + r_26 <= 1
 blue_ind_98: b_16 + b_26 <= 1
 red_ind_99: r_16 + r_27 <= 1
 blue_ind_99: b_16 + b_27 <= 1
 red_ind_100: r_16 + r_29 <= 1
 blue_ind_100: b_16 + b_29 <= 1
 red_ind_101: r_17 + r_37 <= 1
 blue_ind_101: b_17 + b_37 <= 1
 red_ind_102: r_17 + r_39 <= 1
 blue_ind_102: b_17 + b_39 <= 1
 red_ind_103: r_17 + r_18 <= 1
 blue_ind_103: b_17 + b_18 <= 1
 red_ind_104: r_17 + r_20 <= 1
 blue_ind_104: b_17 + b_20 <= 1
 red_ind_105: r_17 + r_23 <= 1
 blue_ind_105: b_17 + b_23 <= 1
 red_ind_106: r_17 + r_28 <= 1
 blue_ind_106: b_17 + b_28 <= 1
 red_ind_107: r_17 + r_30 <= 1
 blue_ind_107: b_17 + b_30 <= 1
 red_ind_108: r_17 + r_31 <= 1
 blue_ind_108: b_17 + b_31 <= 1
 red_ind_109: r_18 + r_32 <= 1
 blue_ind_109: b_18 + b_32 <= 1
 red_ind_110: r_18 + r_19 <= 1
 blue_ind_110: b_18 + b_19 <= 1
 red_ind_111: r_18 + r_20 <= 1
 blue_ind_111: b_18 + b_20 <= 1
 red_ind_112: r_18 + r_22 <= 1
 blue_ind_112: b_18 + b_22 <= 1
 red_ind_113: r_18 + r_31 <= 1
 blue_ind_113: b_18 + b_31 <= 1
 red_ind_114: r_19 + r_32 <= 1
 blue_ind_114: b_19 + b_32 <= 1
 red_ind_115: r_19 + r_35 <= 1
 blue_ind_115: b_19 + b_35 <= 1
 red_ind_116: r_20 + r_33 <= 1
 blue_ind_116: b_20 + b_33 <= 1
 red_ind_117: r_20 + r_23 <= 1
 blue_ind_117: b_20 + b_23 <= 1
 red_ind_118: r_20 + r_28 <= 1
 blue_ind_118: b_20 + b_28 <= 1
 red_ind_119: r_20 + r_29 <= 1
 blue_ind_119: b_20 + b_29 <= 1
 red_ind_120: r_20 + r_30 <= 1
 blue_ind_120: b_20 + b_30 <= 1
 red_ind_121: r_21 + r_32 <= 1
 blue_ind_121: b_21 + b_32 <= 1
 red_ind_122: r_22 + r_34 <= 1
 blue_ind_122: b_22 + b_34 <= 1
 red_ind_123: r_22 + r_36 <= 1
 blue_ind_123: b_22 + b_36 <= 1
 red_ind_124: r_23 + r_36 <= 1
 blue_ind_124: b_23 + b_36 <= 1
 red_ind_125: r_23 + r_38 <= 1
 blue_ind_125: b_23 + b_38 <= 1
 red_ind_126: r_23 + r_24 <= 1
 blue_ind_126: b_23 + b_24 <= 1
 red_ind_127: r_24 + r_32 <= 1
 blue_ind_127: b_24 + b_32 <= 1
 red_ind_128: r_24 + r_34 <= 1
 blue_ind_128: b_24 + b_34 <= 1
 red_ind_129: r_24 + r_35 <= 1
 blue_ind_129: b_24 + b_35 <= 1
 red_ind_130: r_24 + r_38 <= 1
 blue_ind_130: b_24 + b_38 <= 1
 red_ind_131: r_25 + r_31 <= 1
 blue_ind_131: b_25 + b_31 <= 1
 red_ind_132: r_26 + r_32 <= 1
 blue_ind_132: b_26 + b_32 <= 1
 red_ind_133: r_26 + r_30 <= 1
 blue_ind_133: b_26 + b_30 <= 1
 red_ind_134: r_27 + r_32 <= 1
 blue_ind_134: b_27 + b_32 <= 1
 red_ind_135: r_27 + r_35 <= 1
 blue_ind_135: b_27 + b_35 <= 1
 red_ind_136: r_27 + r_39 <= 1
 blue_ind_136: b_27 + b_39 <= 1
 red_ind_137: r_28 + r_36 <= 1
 blue_ind_137: b_28 + b_36 <= 1
 red_ind_138: r_28 + r_38 <= 1
 blue_ind_138: b_28 + b_38 <= 1
 red_ind_139: r_28 + r_39 <= 1
 blue_ind_139: b_28 + b_39 <= 1
 red_ind_140: r_29 + r_35 <= 1
 blue_ind_140: b_29 + b_35 <= 1
 red_ind_141: r_29 + r_37 <= 1
 blue_ind_141: b_29 + b_37 <= 1
 red_ind_142: r_30 + r_31 <= 1
 blue_ind_142: b_30 + b_31 <= 1
 red_ind_143: r_31 + r_32 <= 1
 blue_ind_143: b_31 + b_32 <= 1
 red_ind_144: r_32 + r_34 <= 1
 blue_ind_144: b_32 + b_34 <= 1
 red_ind_145: r_32 + r_37 <= 1
 blue_ind_145: b_32 + b_37 <= 1
 red_ind_146: r_33 + r_36 <= 1
 blue_ind_146: b_33 + b_36 <= 1
 red_ind_147: r_34 + r_37 <= 1
 blue_ind_147: b_34 + b_37 <= 1
 red_ind_148: r_34 + r_38 <= 1
 blue_ind_148: b_34 + b_38 <= 1
 red_ind_149: r_36 + r_38 <= 1
 blue_ind_149: b_36 + b_38 <= 1
 red_dom_0: r_3 + r_4 + r_12 + r_21 + r_22 + r_30 + r_32 + r_36 + r_0 + b_0 >= 1
 blue_dom_0: b_3 + b_4 + b_12 + b_21 + b_22 + b_30 + b_32 + b_36 + r_0 + b_0 >= 1
 red_dom_1: r_8 + r_28 + r_1 + b_1 >= 1
 blue_dom_1: b_8 + b_28 + r_1 + b_1 >= 1
 red_dom_2: r_7 + r_11 + r_13 + r_18 + r_26 + r_28 + r_30 + r_32 + r_34 + r_37 + r_38 + r_2 + b_2 >= 1
 blue_dom_2: b_7 + b_11 + b_13 + b_18 + b_26 + b_28 + b_30 + b_32 + b_34 + b_37 + b_38 + r_2 + b_2 >= 1
 red_dom_3: r_0 + r_5 + r_7 + r_8 + r_12 + r_14 + r_26 + r_29 + r_33 + r_38 + r_3 + b_3 >= 1
 blue_dom_3: b_0 + b_5 + b_7 + b_8 + b_12 + b_14 + b_26 + b_29 + b_33 + b_38 + r_3 + b_3 >= 1
 red_dom_4: r_0 + r_5 + r_6 + r_7 + r_8 + r_9 + r_25 + r_26 + r_28 + r_31 + r_32 + r_4 + b_4 >= 1
 blue_dom_4: b_0 + b_5 + b_6 + b_7 + b_8 + b_9 + b_25 + b_26 + b_28 + b_31 + b_32 + r_4 + b_4 >= 1
 red_dom_5: r_3 + r_4 + r_12 + r_15 + r_16 + r_25 + r_27 + r_31 + r_37 + r_5 + b_5 >= 1
 blue_dom_5: b_3 + b_4 + b_12 + b_15 + b_16 + b_25 + b_27 + b_31 + b_37 + r_5 + b_5 >= 1
 red_dom_6: r_4 + r_8 + r_10 + r_16 + r_17 + r_18 + r_23 + r_6 + b_6 >= 1
 blue_dom_6: b_4 + b_8 + b_10 + b_16 + b_17 + b_18 + b_23 + r_6 + b_6 >= 1
 red_dom_7: r_2 + r_3 + r_4 + r_15 + r_18 + r_20 + r_21 + r_25 + r_32 + r_36 + r_7 + b_7 >= 1
 blue_dom_7: b_2 + b_3 + b_4 + b_15 + b_18 + b_20 + b_21 + b_25 + b_32 + b_36 + r_7 + b_7 >= 1
 red_dom_8: r_1 + r_3 + r_4 + r_6 + r_16 + r_18 + r_21 + r_8 + b_8 >= 1
 blue_dom_8: b_1 + b_3 + b_4 + b_6 + b_16 + b_18 + b_21 + r_8 + b_8 >= 1
 red_dom_9: r_4 + r_11 + r_17 + r_23 + r_26 + r_29 + r_31 + r_39 + r_9 + b_9 >= 1
 blue_dom_9: b_4 + b_11 + b_17 + b_23 + b_26 + b_29 + b_31 + b_39 + r_9 + b_9 >= 1
 red_dom_10: r_6 + r_11 + r_21 + r_22 + r_24 + r_31 + r_32 + r_36 + r_10 + b_10 >= 1
 blue_dom_10: b_6 + b_11 + b_21 + b_22 + b_24 + b_31 + b_32 + b_36 + r_10 + b_10 >= 1
 red_dom_11: r_2 + r_9 + r_10 + r_21 + r_29 + r_11 + b_11 >= 1
 blue_dom_11: b_2 + b_9 + b_10 + b_21 + b_29 + r_11 + b_11 >= 1
 red_dom_12: r_0 + r_3 + r_5 + r_15 + r_20 + r_22 + r_31 + r_33 + r_12 + b_12 >= 1
 blue_dom_12: b_0 + b_3 + b_5 + b_15 + b_20 + b_22 + b_31 + b_33 + r_12 + b_12 >= 1
 red_dom_13: r_2 + r_34 + r_39 + r_13 + b_13 >= 1
 blue_dom_13: b_2 + b_34 + b_39 + r_13 + b_13 >= 1
 red_dom_14: r_3 + r_16 + r_17 + r_30 + r_33 + r_34 + r_14 + b_14 >= 1
 blue_dom_14: b_3 + b_16 + b_17 + b_30 + b_33 + b_34 + r_14 + b_14 >= 1
 red_dom_15: r_5 + r_7 + r_12 + r_22 + r_23 + r_27 + r_15 + b_15 >= 1
 blue_dom_15: b_5 + b_7 + b_12 + b_22 + b_23 + b_27 + r_15 + b_15 >= 1
 red_dom_16: r_5 + r_6 + r_8 + r_14 + r_26 + r_27 + r_29 + r_33 + r_36 + r_37 + r_39 + r_16 + b_16 >= 1
 blue_dom_16: b_5 + b_6 + b_8 + b_14 + b_26 + b_27 + b_29 + b_33 + b_36 + b_37 + b_39 + r_16 + b_16 >= 1
 red_dom_17: r_6 + r_9 + r_14 + r_18 + r_20 + r_23 + r_28 + r_30 + r_31 + r_37 + r_39 + r_17 + b_17 >= 1
 blue_dom_17: b_6 + b_9 + b_14 + b_18 + b_20 + b_23 + b_28 + b_30 + b_31 + b_37 + b_39 + r_17 + b_17 >= 1
 red_dom_18: r_2 + r_6 + r_7 + r_8 + r_17 + r_19 + r_20 + r_22 + r_31 + r_32 + r_18 + b_18 >= 1
 blue_dom_18: b_2 + b_6 + b_7 + b_8 + b_17 + b_19 + b_20 + b_22 + b_31 + b_32 + r_18 + b_18 >= 1
 red_dom_19: r_18 + r_32 + r_35 + r_19 + b_19 >= 1
 blue_dom_19: b_18 + b_32 + b_35 + r_19 + b_19 >= 1
 red_dom_20: r_7 + r_12 + r_17 + r_18 + r_23 + r_28 + r_29 + r_30 + r_33 + r_20 + b_20 >= 1
 blue_dom_20: b_7 + b_12 + b_17 + b_18 + b_23 + b_28 + b_29 + b_30 + b_33 + r_20 + b_20 >= 1
 red_dom_21: r_0 + r_7 + r_8 + r_10 + r_11 + r_32 + r_21 + b_21 >= 1
 blue_dom_21: b_0 + b_7 + b_8 + b_10 + b_11 + b_32 + r_21 + b_21 >= 1
 red_dom_22: r_0 + r_10 + r_12 + r_15 + r_18 + r_34 + r_36 + r_22 + b_22 >= 1
 blue_dom_22: b_0 + b_10 + b_12 + b_15 + b_18 + b_34 + b_36 + r_22 + b_22 >= 1
 red_dom_23: r_6 + r_9 + r_15 + r_17 + r_20 + r_24 + r_36 + r_38 + r_23 + b_23 >= 1
 blue_dom_23: b_6 + b_9 + b_15 + b_17 + b_20 + b_24 + b_36 + b_38 + r_23 + b_23 >= 1
 red_dom_24: r_10 + r_23 + r_32 + r_34 + r_35 + r_38 + r_24 + b_24 >= 1
 blue_dom_24: b_10 + b_23 + b_32 + b_34 + b_35 + b_38 + r_24 + b_24 >= 1
 red_dom_25: r_4 + r_5 + r_7 + r_31 + r_25 + b_25 >= 1
 blue_dom_25: b_4 + b_5 + b_7 + b_31 + r_25 + b_25 >= 1
 red_dom_26: r_2 + r_3 + r_4 + r_9 + r_16 + r_30 + r_32 + r_26 + b_26 >= 1
 blue_dom_26: b_2 + b_3 + b_4 + b_9 + b_16 + b_30 + b_32 + r_26 + b_26 >= 1
 red_dom_27: r_5 + r_15 + r_16 + r_32 + r_35 + r_39 + r_27 + b_27 >= 1
 blue_dom_27: b_5 + b_15 + b_16 + b_32 + b_35 + b_39 + r_27 + b_27 >= 1
 red_dom_28: r_1 + r_2 + r_4 + r_17 + r_20 + r_36 + r_38 + r_39 + r_28 + b_28 >= 1
 blue_dom_28: b_1 + b_2 + b_4 + b_17 + b_20 + b_36 + b_38 + b_39 + r_28 + b_28 >= 1
 red_dom_29: r_3 + r_9 + r_11 + r_16 + r_20 + r_35 + r_37 + r_29 + b_29 >= 1
 blue_dom_29: b_3 + b_9 + b_11 + b_16 + b_20 + b_35 + b_37 + r_29 + b_29 >= 1
 red_dom_30: r_0 + r_2 + r_14 + r_17 + r_20 + r_26 + r_31 + r_30 + b_30 >= 1
 blue_dom_30: b_0 + b_2 + b_14 + b_17 + b_20 + b_26 + b_31 + r_30 + b_30 >= 1
 red_dom_31: r_4 + r_5 + r_9 + r_10 + r_12 + r_17 + r_18 + r_25 + r_30 + r_32 + r_31 + b_31 >= 1
 blue_dom_31: b_4 + b_5 + b_9 + b_10 + b_12 + b_17 + b_18 + b_25 + b_30 + b_32 + r_31 + b_31 >= 1
 red_dom_32: r_0 + r_2 + r_4 + r_7 + r_10 + r_18 + r_19 + r_21 + r_24 + r_26 + r_27 + r_31 + r_34 + r_37 + r_32 + b_32 >= 1
 blue_dom_32: b_0 + b_2 + b_4 + b_7 + b_10 + b_18 + b_19 + b_21 + b_24 + b_26 + b_27 + b_31 + b_34 + b_37 + r_32 + b_32 >= 1
 red_dom_33: r_3 + r_12 + r_14 + r_16 + r_20 + r_36 + r_33 + b_33 >= 1
 blue_dom_33: b_3 + b_12 + b_14 + b_16 + b_20 + b_36 + r_33 + b_33 >= 1
 red_dom_34: r_2 + r_13 + r_14 + r_22 + r_24 + r_32 + r_37 + r_38 + r_34 + b_34 >= 1
 blue_dom_34: b_2 + b_13 + b_14 + b_22 + b_24 + b_32 + b_37 + b_38 + r_34 + b_34 >= 1
 red_dom_35: r_19 + r_24 + r_27 + r_29 + r_35 + b_35 >= 1
 blue_dom_35: b_19 + b_24 + b_27 + b_29 + r_35 + b_35 >= 1
 red_dom_36: r_0 + r_7 + r_10 + r_16 + r_22 + r_23 + r_28 + r_33 + r_38 + r_36 + b_36 >= 1
 blue_dom_36: b_0 + b_7 + b_10 + b_16 + b_22 + b_23 + b_28 + b_33 + b_38 + r_36 + b_36 >= 1
 red_dom_37: r_2 + r_5 + r_16 + r_17 + r_29 + r_32 + r_34 + r_37 + b_37 >= 1
 blue_dom_37: b_2 + b_5 + b_16 + b_17 + b_29 + b_32 + b_34 + r_37 + b_37 >= 1
 red_dom_38: r_2 + r_3 + r_23 + r_24 + r_28 + r_34 + r_36 + r_38 + b_38 >= 1
 blue_dom_38: b_2 + b_3 + b_23 + b_24 + b_28 + b_34 + b_36 + r_38 + b_38 >= 1
 red_dom_39: r_9 + r_13 + r_16 + r_17 + r_27 + r_28 + r_39 + b_39 >= 1
 blue_dom_39: b_9 + b_13 + b_16 + b_17 + b_27 + b_28 + r_39 + b_39 >= 1
Binary
 r_0
 r_1
 r_2
 r_3
 r_4
 r_5
 r_6
 r_7
 r_8
 r_9
 r_10
 r_11
 r_12
 r_13
 r_14
 r_15
 r_16
 r_17
 r_18
 r_19
 r_20
 r_21
 r_22
 r_23
 r_24
 r_25
 r_26
 r_27
 r_28
 r_29
 r_30
 r_31
 r_32
 r_33
 r_34
 r_35
 r_36
 r_37
 r_38
 r_39
 b_0
 b_1
 b_2
 b_3
 b_4
 b_5
 b_6
 b_7
 b_8
 b_9
 b_10
 b_11
 b_12
 b_13
 b_14
 b_15
 b_16
 b_17
 b_18
 b_19
 b_20
 b_21
 b_22
 b_23
 b_24
 b_25
 b_26
 b_27
 b_28
 b_29
 b_30
 b_31
 b_32
 b_33
 b_34
 b_35
 b_36
 b_37
 b_38
 b_39
End
