computational_data/solutions/ER_n40_p020_s2.sol
Optimal - objective value 12.00000000
     11 r_11                        1                       1
     16 r_16                        1                       1
     22 r_22                        1                       1
     25 r_25                        1                       1
     30 r_30                        1                       1
     35 r_35                        1                       1
     38 r_38                        1                       1
     41 b_1                         1                       1
     43 b_3                         1                       1
     53 b_13                        1                       1
     63 b_23                        1                       1
     72 b_32                        1                       1
