computational_data/logs/ER_n40_p020_s2.log
Welcome to the CBC MILP Solver 
Version: 2.10.12 
Build Date: Aug 20 2024 

command line - /opt/homebrew/bin/cbc computational_data/lp/ER_n40_p020_s2.lp seconds 10.0 solve solu computational_data/solutions/ER_n40_p020_s2.sol (default strategy 1)
seconds was changed from 1e+100 to 10
Continuous objective value is 9.80914 - 0.00 seconds
Cgl0003I 0 fixed, 0 tightened bounds, 105 strengthened rows, 0 substitutions
Cgl0003I 0 fixed, 0 tightened bounds, 95 strengthened rows, 0 substitutions
Cgl0003I 0 fixed, 0 tightened bounds, 58 strengthened rows, 0 substitutions
Cgl0003I 0 fixed, 0 tightened bounds, 5 strengthened rows, 0 substitutions
Cgl0003I 0 fixed, 0 tightened bounds, 4 strengthened rows, 0 substitutions
Cgl0004I processed model has 299 rows, 80 columns (80 integer (80 of which binary)) and 1403 elements
Cutoff increment increased from 1e-05 to 0.9999
Cbc0038I Initial state - 52 integers unsatisfied sum - 9.80914
Cbc0038I Pass   1: suminf.    9.81331 (54) obj. 9.81331 iterations 9
Cbc0038I Pass   2: suminf.    9.83071 (40) obj. 10.7913 iterations 51
Cbc0038I Pass   3: suminf.    6.87444 (31) obj. 11.583 iterations 69
Cbc0038I Pass   4: suminf.    5.85714 (22) obj. 11.8571 iterations 42
Cbc0038I Pass   5: suminf.    5.75000 (21) obj. 12.25 iterations 37
Cbc0038I Pass   6: suminf.    4.50000 (9) obj. 13.5 iterations 40
Cbc0038I Pass   7: suminf.    4.50000 (9) obj. 13.5 iterations 18
Cbc0038I Pass   8: suminf.    0.00000 (0) obj. 15 iterations 31
Cbc0038I Solution found of 15
Cbc0038I Rounding solution of 14 is better than previous of 15

Cbc0038I Before mini branch and bound, 19 integers at bound fixed and 0 continuous
Cbc0038I Full problem 299 rows 80 columns, reduced to 245 rows 61 columns - 8 fixed gives 65, 21 - ok now
Cbc0038I Mini branch and bound did not improve solution (0.01 seconds)
Cbc0038I Round again with cutoff of 12.681
Cbc0038I Pass   9: suminf.    9.81331 (54) obj. 9.81331 iterations 0
Cbc0038I Pass  10: suminf.    8.96721 (32) obj. 11.7705 iterations 75
Cbc0038I Pass  11: suminf.    5.16776 (29) obj. 12.681 iterations 53
Cbc0038I Pass  12: suminf.    5.06428 (30) obj. 12.681 iterations 14
Cbc0038I Pass  13: suminf.    5.93596 (25) obj. 12.681 iterations 45
Cbc0038I Pass  14: suminf.    5.44033 (28) obj. 12.681 iterations 19
Cbc0038I Pass  15: suminf.    7.29667 (33) obj. 12.681 iterations 69
Cbc0038I Pass  16: suminf.    5.52599 (33) obj. 12.681 iterations 50
Cbc0038I Pass  17: suminf.    4.86380 (26) obj. 12.681 iterations 32
Cbc0038I Pass  18: suminf.    6.12904 (24) obj. 12.681 iterations 60
Cbc0038I Pass  19: suminf.    1.21522 (26) obj. 12.681 iterations 59
Cbc0038I Pass  20: suminf.    0.95699 (3) obj. 12.681 iterations 44
Cbc0038I Solution found of 12
Cbc0038I Before mini branch and bound, 9 integers at bound fixed and 0 continuous
Cbc0038I Full problem 299 rows 80 columns, reduced to 277 rows 71 columns - 5 fixed gives 155, 44 - still too large
Cbc0038I Full problem 299 rows 80 columns, reduced to 155 rows 44 columns - too large
Cbc0038I Mini branch and bound did not improve solution (0.02 seconds)
Cbc0038I Round again with cutoff of 10.7619
Cbc0038I Reduced cost fixing fixed 1 variables on major pass 3
Cbc0038I Pass  21: suminf.    9.81331 (54) obj. 9.81331 iterations 0
Cbc0038I Pass  22: suminf.    9.67971 (32) obj. 10.7619 iterations 51
Cbc0038I Pass  23: suminf.    7.06013 (39) obj. 10.7619 iterations 46
Cbc0038I Pass  24: suminf.    6.69317 (36) obj. 10.7619 iterations 43
Cbc0038I Pass  25: suminf.    6.09141 (37) obj. 10.7619 iterations 25
Cbc0038I Pass  26: suminf.    9.19870 (38) obj. 10.7619 iterations 67
Cbc0038I Pass  27: suminf.    7.52061 (41) obj. 10.7619 iterations 58
Cbc0038I Pass  28: suminf.    7.34595 (42) obj. 10.7619 iterations 16
Cbc0038I Pass  29: suminf.    7.15915 (45) obj. 10.7619 iterations 17
Cbc0038I Pass  30: suminf.    8.12125 (31) obj. 10.7619 iterations 43
Cbc0038I Pass  31: suminf.    7.23212 (40) obj. 10.7619 iterations 28
Cbc0038I Pass  32: suminf.    8.21572 (37) obj. 10.7619 iterations 36
Cbc0038I Pass  33: suminf.    7.19046 (41) obj. 10.7619 iterations 40
Cbc0038I Pass  34: suminf.    6.96694 (41) obj. 10.7619 iterations 24
Cbc0038I Pass  35: suminf.    8.39213 (37) obj. 10.7619 iterations 48
Cbc0038I Pass  36: suminf.    7.70078 (43) obj. 10.7619 iterations 22
Cbc0038I Pass  37: suminf.    7.56440 (44) obj. 10.7619 iterations 9
Cbc0038I Pass  38: suminf.    7.39018 (43) obj. 10.7619 iterations 13
Cbc0038I Pass  39: suminf.    7.06044 (40) obj. 10.7619 iterations 15
Cbc0038I Pass  40: suminf.    6.96694 (41) obj. 10.7619 iterations 15
Cbc0038I Pass  41: suminf.    8.76763 (38) obj. 10.7619 iterations 59
Cbc0038I Pass  42: suminf.    8.19345 (35) obj. 10.7619 iterations 18
Cbc0038I Pass  43: suminf.    8.05513 (34) obj. 10.7619 iterations 15
Cbc0038I Pass  44: suminf.    7.73837 (38) obj. 10.7619 iterations 22
Cbc0038I Pass  45: suminf.    7.32720 (36) obj. 10.7619 iterations 18
Cbc0038I Pass  46: suminf.    7.07587 (36) obj. 10.7619 iterations 15
Cbc0038I Pass  47: suminf.    8.64607 (34) obj. 10.7619 iterations 39
Cbc0038I Pass  48: suminf.    7.46505 (38) obj. 10.7619 iterations 45
Cbc0038I Pass  49: suminf.    7.25572 (36) obj. 10.7619 iterations 18
Cbc0038I Pass  50: suminf.    6.45172 (37) obj. 10.7619 iterations 20
Cbc0038I No solution found this major pass
Cbc0038I Before mini branch and bound, 6 integers at bound fixed and 0 continuous
Cbc0038I Full problem 299 rows 80 columns, reduced to 288 rows 74 columns - 5 fixed gives 160, 45 - still too large
Cbc0038I Mini branch and bound did not improve solution (0.04 seconds)
Cbc0038I After 0.04 seconds - Feasibility pump exiting with objective of 12 - took 0.03 seconds
Cbc0012I Integer solution of 12 found by feasibility pump after 0 iterations and 0 nodes (0.04 seconds)
Cbc0038I Full problem 299 rows 80 columns, reduced to 225 rows 55 columns - 5 fixed gives 115, 32 - ok now
Cbc0031I 11 added rows had average density of 80
Cbc0013I At root node, 11 cuts changed objective from 9.8091418 to 10.133008 in 100 passes
Cbc0014I Cut generator 0 (Probing) - 0 row cuts average 0.0 elements, 0 column cuts (0 active)  in 0.031 seconds - new frequency is -100
Cbc0014I Cut generator 1 (Gomory) - 677 row cuts average 80.0 elements, 0 column cuts (0 active)  in 0.048 seconds - new frequency is -100
Cbc0014I Cut generator 2 (Knapsack) - 0 row cuts average 0.0 elements, 0 column cuts (0 active)  in 0.005 seconds - new frequency is -100
Cbc0014I Cut generator 3 (Clique) - 0 row cuts average 0.0 elements, 0 column cuts (0 active)  in 0.009 seconds - new frequency is -100
Cbc0014I Cut generator 4 (MixedIntegerRounding2) - 0 row cuts average 0.0 elements, 0 column cuts (0 active)  in 0.031 seconds - new frequency is -100
Cbc0014I Cut generator 5 (FlowCover) - 0 row cuts average 0.0 elements, 0 column cuts (0 active)  in 0.001 seconds - new frequency is -100
Cbc0010I After 0 nodes, 1 on tree, 12 best solution, best possible 10.133008 (0.38 seconds)
Cbc0001I Search completed - best objective 12, took 5522 iterations and 22 nodes (0.53 seconds)
Cbc0032I Strong branching done 528 times (13916 iterations), fathomed 4 nodes and fixed 3 variables
Cbc0035I Maximum depth 7, 103 variables fixed on reduced cost
Cuts at root node changed objective from 9.80914 to 10.133
Probing was tried 100 times and created 0 cuts of which 0 were active after adding rounds of cuts (0.031 seconds)
Gomory was tried 100 times and created 677 cuts of which 0 were active after adding rounds of cuts (0.048 seconds)
Knapsack was tried 100 times and created 0 cuts of which 0 were active after adding rounds of cuts (0.005 seconds)
Clique was tried 100 times and created 0 cuts of which 0 were active after adding rounds of cuts (0.009 seconds)
MixedIntegerRounding2 was tried 100 times and created 0 cuts of which 0 were active after adding rounds of cuts (0.031 seconds)
FlowCover was tried 100 times and created 0 cuts of which 0 were active after adding rounds of cuts (0.001 seconds)
TwoMirCuts was tried 1 times and created 0 cuts of which 0 were active after adding rounds of cuts (0.001 seconds)
ZeroHalf was tried 1 times and created 0 cuts of which 0 were active after adding rounds of cuts (0.001 seconds)

Result - Optimal solution found

Objective value:                12.00000000
Enumerated nodes:               22
Total iterations:               5522
Time (CPU seconds):             0.54
Time (Wallclock seconds):       0.56

Total time (CPU seconds):       0.54   (Wallclock seconds):       0.56

